-----------------------------------------
Synthetic ORCA-style demonstration output
-----------------------------------------

This file contains synthetic demonstration values.
It is not the output of an active research calculation.

GEOMETRY OPTIMIZATION CYCLE   1
FINAL SINGLE POINT ENERGY     -75.900000

GEOMETRY OPTIMIZATION CYCLE   2
FINAL SINGLE POINT ENERGY     -75.950000

GEOMETRY OPTIMIZATION CYCLE   3
FINAL SINGLE POINT ENERGY     -75.975000

***********************HURRAY********************
***        THE OPTIMIZATION HAS CONVERGED     ***
*************************************************

-----------------------
VIBRATIONAL FREQUENCIES
-----------------------

0:          0.00 cm**-1
1:          0.00 cm**-1
2:          0.00 cm**-1
3:          0.00 cm**-1
4:          0.00 cm**-1
5:          0.00 cm**-1
6:       1600.00 cm**-1
7:       3650.00 cm**-1
8:       3750.00 cm**-1

-----------
IR SPECTRUM
-----------

 Mode   freq       eps      Int      T**2
       cm**-1   L/(mol*cm) km/mol    a.u.
------------------------------------------------
6:    1600.00    0.001000   70.00    0.000100
7:    3650.00    0.002000   25.00    0.000200
8:    3750.00    0.003000   40.00    0.000300

ORCA TERMINATED NORMALLY